NAME : tsp35_16.210.tour
COMMENT : Length = 210
COMMENT : Found by LKH [Keld Helsgaun]
TYPE : TOUR
DIMENSION : 35
TOUR_SECTION
1
7
17
8
4
35
30
21
11
16
9
34
18
25
28
12
15
2
5
10
14
26
3
24
20
6
22
19
31
23
27
29
13
33
32
-1
EOF
